proyfinal/src/viki/013/experimentInOfficeAgust.take6.output/e3d9a452-8ddd-4394-92a0-7245add828bb.als.dat
{'cnf.clauses': '118081',
 'cnf.totvars': '69608',
 'conflict literals': '17',
 'conflicts': '12',
 'decisions': '1452',
 'memused.mb': '16.36',
 'outcome': 'UNSAT',
 'propagations': '36040',
 'restarts': '1',
 'solver.msecs': 29,
 'task.msecs': 84}
