proyfinal/src/viki/013/experimentInOfficeAgust.take6.output/e3d9a452-8ddd-4394-92a0-7245add828bb.als.out
Reading from standard input... Use '--help' for help.
============================[ Problem Statistics ]=============================
|                                                                             |
|  Number of variables:         69608                                         |
|  Number of clauses:          118081                                         |
|  Parse time:                   0.02 s                                       |
|                                                                             |
============================[ Search Statistics ]==============================
| Conflicts |          ORIGINAL         |          LEARNT          | Progress |
|           |    Vars  Clauses Literals |    Limit  Clauses Lit/Cl |          |
===============================================================================
===============================================================================
restarts              : 1
conflicts             : 12             (403 /sec)
decisions             : 1452           (0.00 % random) (48785 /sec)
propagations          : 36040          (1210899 /sec)
conflict literals     : 17             (10.53 % deleted)
Memory used           : 16.36 MB
CPU time              : 0.029763 s

UNSATISFIABLE
